NAME : TSP_INST.7987954.tour
COMMENT : Length = 7987954
COMMENT : Found by LKH [Keld Helsgaun] Sat Oct 18 11:07:53 2025
TYPE : TOUR
DIMENSION : 100
TOUR_SECTION
1
50
85
70
74
45
99
58
73
24
30
56
68
62
71
4
26
9
64
83
11
6
77
61
59
95
31
41
81
96
46
12
33
55
67
13
91
34
54
63
18
72
87
93
90
88
89
39
65
80
79
52
7
76
86
2
92
48
57
42
27
82
35
15
75
40
84
5
78
100
60
25
98
19
37
17
69
22
43
23
20
47
8
38
14
49
32
36
53
16
29
21
3
44
10
66
28
94
97
51
-1
EOF
